p cnf 432 986
-432 -429 -427 -424 -385 0
-431 -428 -426 -392 -384 0
-430 -423 -403 -390 -383 0
-429 -420 -410 -398 -391 0
-428 -419 -402 -397 0
-427 425 0
-426 425 0
-425 -418 -401 -396 -389 0
-425 426 0
-425 427 0
-424 422 0
-423 422 0
-422 -417 -388 0
-422 423 0
-422 424 0
-421 -416 0
-421 -415 0
-420 -413 0
-419 -409 0
-418 -406 0
-417 -395 0
-416 382 0
-416 387 0
-416 394 0
-416 400 0
-416 405 0
-416 408 0
-416 412 0
-416 414 0
-415 -380 0
-414 -412 -408 -405 -400 -394 -387 -382 416 0
-414 -379 -347 -259 -111 0
-413 411 0
-412 411 0
-411 -378 -346 -258 -98 0
-411 412 0
-411 413 0
-410 407 0
-409 407 0
-408 407 0
-407 -377 -345 -257 -85 0
-407 408 0
-407 409 0
-407 410 0
-406 404 0
-405 404 0
-404 -376 -344 -256 -72 0
-404 405 0
-404 406 0
-403 399 0
-402 399 0
-401 399 0
-400 399 0
-399 -375 -342 -255 -59 0
-399 400 0
-399 401 0
-399 402 0
-399 403 0
-398 393 0
-397 393 0
-396 393 0
-395 393 0
-394 393 0
-393 -374 -340 -254 -46 0
-393 394 0
-393 395 0
-393 396 0
-393 397 0
-393 398 0
-392 386 0
-391 386 0
-390 386 0
-389 386 0
-388 386 0
-387 386 0
-386 -373 -338 -250 -33 0
-386 387 0
-386 388 0
-386 389 0
-386 390 0
-386 391 0
-386 392 0
-385 381 0
-384 381 0
-383 381 0
-382 381 0
-381 -372 -336 -246 -20 0
-381 382 0
-381 383 0
-381 384 0
-381 385 0
-380 -371 -334 -242 -7 0
-379 -369 -117 0
-378 -368 -107 0
-377 -367 -94 0
-376 -366 -81 0
-375 -365 -68 0
-374 -364 -55 0
-373 -363 -42 0
-372 -362 -29 0
-371 -361 -16 0
-370 -359 0
-369 360 0
-368 360 0
-367 360 0
-366 360 0
-365 360 0
-364 360 0
-363 360 0
-362 360 0
-361 360 0
-360 -358 0
-360 361 0
-360 362 0
-360 363 0
-360 364 0
-360 365 0
-360 366 0
-360 367 0
-360 368 0
-360 369 0
-359 357 0
-358 357 0
-357 348 0
-357 349 0
-357 350 0
-357 351 0
-357 352 0
-357 353 0
-357 354 0
-357 355 0
-357 356 0
-357 358 0
-357 359 0
-356 -355 -354 -353 -352 -351 -350 -349 -348 357 0
-356 -343 -308 0
-355 -341 -307 0
-354 -339 -306 0
-353 -337 -305 0
-352 -335 -304 0
-351 -333 -303 0
-350 -332 -302 0
-349 -331 -301 0
-348 -330 -300 0
-347 -328 -114 0
-346 -327 -101 0
-345 -326 -88 0
-344 -325 -75 0
-343 -318 -287 0
-343 287 318 0
-342 -324 -62 0
-341 -317 -284 0
-341 284 317 0
-340 -323 -49 0
-339 -316 -281 0
-339 281 316 0
-338 -322 -36 0
-337 -315 -278 0
-337 278 315 0
-336 -321 -23 0
-335 -314 -275 0
-335 275 314 0
-334 -320 -10 0
-333 -313 -272 0
-333 272 313 0
-332 -312 -269 0
-332 269 312 0
-331 -311 -266 0
-331 266 311 0
-330 -310 -262 0
-330 262 310 0
-329 -299 0
-328 319 0
-327 319 0
-326 319 0
-325 319 0
-324 319 0
-323 319 0
-322 319 0
-321 319 0
-320 319 0
-319 -298 0
-319 320 0
-319 321 0
-319 322 0
-319 323 0
-319 324 0
-319 325 0
-319 326 0
-319 327 0
-319 328 0
-318 287 343 0
-318 309 0
-317 284 341 0
-317 309 0
-316 281 339 0
-316 309 0
-315 278 337 0
-315 309 0
-314 275 335 0
-314 309 0
-313 272 333 0
-313 309 0
-312 269 332 0
-312 309 0
-311 266 331 0
-311 309 0
-310 262 330 0
-310 309 0
-309 -297 0
-309 310 0
-309 311 0
-309 312 0
-309 313 0
-309 314 0
-309 315 0
-309 316 0
-309 317 0
-309 318 0
-308 -295 0
-307 -294 0
-306 -293 0
-305 -292 0
-304 -291 0
-303 -290 0
-302 -289 0
-301 -288 0
-300 -263 0
-299 296 0
-298 296 0
-297 296 0
-296 261 0
-296 265 0
-296 268 0
-296 271 0
-296 274 0
-296 277 0
-296 280 0
-296 283 0
-296 286 0
-296 297 0
-296 298 0
-296 299 0
-295 -253 -198 0
-294 -249 -196 0
-293 -245 -194 0
-292 -241 -192 0
-291 -238 -190 0
-290 -235 -188 0
-289 -232 -186 0
-288 -229 -184 0
-287 285 0
-287 318 343 0
-286 -283 -280 -277 -274 -271 -268 -265 -261 296 0
-286 285 0
-285 -252 -197 0
-285 286 0
-285 287 0
-284 282 0
-284 317 341 0
-283 282 0
-282 -248 -195 0
-282 283 0
-282 284 0
-281 279 0
-281 316 339 0
-280 279 0
-279 -244 -193 0
-279 280 0
-279 281 0
-278 276 0
-278 315 337 0
-277 276 0
-276 -240 -191 0
-276 277 0
-276 278 0
-275 273 0
-275 314 335 0
-274 273 0
-273 -237 -189 0
-273 274 0
-273 275 0
-272 270 0
-272 313 333 0
-271 270 0
-270 -234 -187 0
-270 271 0
-270 272 0
-269 267 0
-269 312 332 0
-268 267 0
-267 -231 -185 0
-267 268 0
-267 269 0
-266 264 0
-266 311 331 0
-265 264 0
-264 -228 -183 0
-264 265 0
-264 266 0
-263 -226 -158 0
-262 260 0
-262 310 330 0
-261 260 0
-260 -225 -157 0
-260 261 0
-260 262 0
-259 -222 -104 0
-258 -221 -91 0
-257 -220 -78 0
-256 -219 -65 0
-255 -218 -52 0
-254 -217 -39 0
-253 251 0
-252 251 0
-251 -212 -182 0
-251 182 212 0
-251 252 0
-251 253 0
-250 -216 -26 0
-249 247 0
-248 247 0
-247 -211 -179 0
-247 179 211 0
-247 248 0
-247 249 0
-246 -215 -13 0
-245 243 0
-244 243 0
-243 -210 -176 0
-243 176 210 0
-243 244 0
-243 245 0
-242 -214 -3 0
-241 239 0
-240 239 0
-239 -209 -173 0
-239 173 209 0
-239 240 0
-239 241 0
-238 236 0
-237 236 0
-236 -208 -170 0
-236 170 208 0
-236 237 0
-236 238 0
-235 233 0
-234 233 0
-233 -207 -167 0
-233 167 207 0
-233 234 0
-233 235 0
-232 230 0
-231 230 0
-230 -206 -164 0
-230 164 206 0
-230 231 0
-230 232 0
-229 227 0
-228 227 0
-227 -205 -161 0
-227 161 205 0
-227 228 0
-227 229 0
-226 224 0
-225 224 0
-224 -204 -156 0
-224 156 204 0
-224 225 0
-224 226 0
-223 -202 0
-222 213 0
-221 213 0
-220 213 0
-219 213 0
-218 213 0
-217 213 0
-216 213 0
-215 213 0
-214 213 0
-213 -201 0
-213 214 0
-213 215 0
-213 216 0
-213 217 0
-213 218 0
-213 219 0
-213 220 0
-213 221 0
-213 222 0
-212 182 251 0
-212 203 0
-211 179 247 0
-211 203 0
-210 176 243 0
-210 203 0
-209 173 239 0
-209 203 0
-208 170 236 0
-208 203 0
-207 167 233 0
-207 203 0
-206 164 230 0
-206 203 0
-205 161 227 0
-205 203 0
-204 156 224 0
-204 203 0
-203 -200 0
-203 204 0
-203 205 0
-203 206 0
-203 207 0
-203 208 0
-203 209 0
-203 210 0
-203 211 0
-203 212 0
-202 199 0
-201 199 0
-200 199 0
-199 155 0
-199 160 0
-199 163 0
-199 166 0
-199 169 0
-199 172 0
-199 175 0
-199 178 0
-199 181 0
-199 200 0
-199 201 0
-199 202 0
-198 -153 0
-198 -116 0
-197 -152 0
-197 -113 0
-196 -149 0
-196 -106 0
-195 -148 0
-195 -100 0
-194 -145 0
-194 -93 0
-193 -144 0
-193 -87 0
-192 -141 0
-192 -80 0
-191 -140 0
-191 -74 0
-190 -137 0
-190 -67 0
-189 -136 0
-189 -61 0
-188 -133 0
-188 -54 0
-187 -132 0
-187 -48 0
-186 -129 0
-186 -41 0
-185 -128 0
-185 -35 0
-184 -125 0
-184 -28 0
-183 -124 0
-183 -22 0
-182 180 0
-182 212 251 0
-181 -178 -175 -172 -169 -166 -163 -160 -155 199 0
-181 180 0
-180 -150 -109 0
-180 181 0
-180 182 0
-179 177 0
-179 211 247 0
-178 177 0
-177 -146 -96 0
-177 178 0
-177 179 0
-176 174 0
-176 210 243 0
-175 174 0
-174 -142 -83 0
-174 175 0
-174 176 0
-173 171 0
-173 209 239 0
-172 171 0
-171 -138 -70 0
-171 172 0
-171 173 0
-170 168 0
-170 208 236 0
-169 168 0
-168 -134 -57 0
-168 169 0
-168 170 0
-167 165 0
-167 207 233 0
-166 165 0
-165 -130 -44 0
-165 166 0
-165 167 0
-164 162 0
-164 206 230 0
-163 162 0
-162 -126 -31 0
-162 163 0
-162 164 0
-161 159 0
-161 205 227 0
-160 159 0
-159 -122 -18 0
-159 160 0
-159 161 0
-158 -121 0
-158 -15 0
-157 -120 0
-157 -9 0
-156 154 0
-156 204 224 0
-155 154 0
-154 -118 -5 0
-154 155 0
-154 156 0
-153 151 0
-152 151 0
-151 -110 0
-151 152 0
-151 153 0
-150 -103 0
-149 147 0
-148 147 0
-147 -97 0
-147 148 0
-147 149 0
-146 -90 0
-145 143 0
-144 143 0
-143 -84 0
-143 144 0
-143 145 0
-142 -77 0
-141 139 0
-140 139 0
-139 -71 0
-139 140 0
-139 141 0
-138 -64 0
-137 135 0
-136 135 0
-135 -58 0
-135 136 0
-135 137 0
-134 -51 0
-133 131 0
-132 131 0
-131 -45 0
-131 132 0
-131 133 0
-130 -38 0
-129 127 0
-128 127 0
-127 -32 0
-127 128 0
-127 129 0
-126 -25 0
-125 123 0
-124 123 0
-123 -19 0
-123 124 0
-123 125 0
-122 -12 0
-121 119 0
-120 119 0
-119 -6 0
-119 120 0
-119 121 0
-118 -2 0
-117 115 0
-116 115 0
-115 116 0
-115 117 0
-114 112 0
-113 112 0
-112 113 0
-112 114 0
-111 108 0
-110 108 0
-109 108 0
-108 109 0
-108 110 0
-108 111 0
-107 105 0
-106 105 0
-105 106 0
-105 107 0
-104 102 0
-103 102 0
-102 103 0
-102 104 0
-101 99 0
-100 99 0
-99 100 0
-99 101 0
-98 95 0
-97 95 0
-96 95 0
-95 96 0
-95 97 0
-95 98 0
-94 92 0
-93 92 0
-92 93 0
-92 94 0
-91 89 0
-90 89 0
-89 90 0
-89 91 0
-88 86 0
-87 86 0
-86 87 0
-86 88 0
-85 82 0
-84 82 0
-83 82 0
-82 83 0
-82 84 0
-82 85 0
-81 79 0
-80 79 0
-79 80 0
-79 81 0
-78 76 0
-77 76 0
-76 77 0
-76 78 0
-75 73 0
-74 73 0
-73 74 0
-73 75 0
-72 69 0
-71 69 0
-70 69 0
-69 70 0
-69 71 0
-69 72 0
-68 66 0
-67 66 0
-66 67 0
-66 68 0
-65 63 0
-64 63 0
-63 64 0
-63 65 0
-62 60 0
-61 60 0
-60 61 0
-60 62 0
-59 56 0
-58 56 0
-57 56 0
-56 57 0
-56 58 0
-56 59 0
-55 53 0
-54 53 0
-53 54 0
-53 55 0
-52 50 0
-51 50 0
-50 51 0
-50 52 0
-49 47 0
-48 47 0
-47 48 0
-47 49 0
-46 43 0
-45 43 0
-44 43 0
-43 44 0
-43 45 0
-43 46 0
-42 40 0
-41 40 0
-40 41 0
-40 42 0
-39 37 0
-38 37 0
-37 38 0
-37 39 0
-36 34 0
-35 34 0
-34 35 0
-34 36 0
-33 30 0
-32 30 0
-31 30 0
-30 31 0
-30 32 0
-30 33 0
-29 27 0
-28 27 0
-27 28 0
-27 29 0
-26 24 0
-25 24 0
-24 25 0
-24 26 0
-23 21 0
-22 21 0
-21 22 0
-21 23 0
-20 17 0
-19 17 0
-18 17 0
-17 18 0
-17 19 0
-17 20 0
-16 14 0
-15 14 0
-14 15 0
-14 16 0
-13 11 0
-12 11 0
-11 12 0
-11 13 0
-10 8 0
-9 8 0
-8 9 0
-8 10 0
-7 4 0
-6 4 0
-5 4 0
-4 5 0
-4 6 0
-4 7 0
-3 1 0
-2 1 0
-1 2 0
-1 3 0
2 118 0
3 242 0
5 154 0
6 119 0
7 380 0
9 120 157 0
10 334 0
12 122 0
13 246 0
15 121 158 0
16 371 0
18 159 0
19 123 0
20 381 0
22 124 183 0
23 336 0
25 126 0
26 250 0
28 125 184 0
29 372 0
31 162 0
32 127 0
33 386 0
35 128 185 0
36 338 0
38 130 0
39 254 0
41 129 186 0
42 373 0
44 165 0
45 131 0
46 393 0
48 132 187 0
49 340 0
51 134 0
52 255 0
54 133 188 0
55 374 0
57 168 0
58 135 0
59 399 0
61 136 189 0
62 342 0
64 138 0
65 256 0
67 137 190 0
68 375 0
70 171 0
71 139 0
72 404 0
74 140 191 0
75 344 0
77 142 0
78 257 0
80 141 192 0
81 376 0
83 174 0
84 143 0
85 407 0
87 144 193 0
88 345 0
90 146 0
91 258 0
93 145 194 0
94 377 0
96 177 0
97 147 0
98 411 0
100 148 195 0
101 346 0
103 150 0
104 259 0
106 149 196 0
107 378 0
109 180 0
110 151 0
111 414 0
113 152 197 0
114 347 0
116 153 198 0
117 379 0
118 154 0
122 159 0
126 162 0
130 165 0
134 168 0
138 171 0
142 174 0
146 177 0
150 180 0
157 260 0
158 263 0
183 264 0
184 288 0
185 267 0
186 289 0
187 270 0
188 290 0
189 273 0
190 291 0
191 276 0
192 292 0
193 279 0
194 293 0
195 282 0
196 294 0
197 285 0
198 295 0
200 203 0
201 213 0
202 223 0
214 242 0
215 246 0
216 250 0
217 254 0
218 255 0
219 256 0
220 257 0
221 258 0
222 259 0
225 260 0
226 263 0
228 264 0
229 288 0
231 267 0
232 289 0
234 270 0
235 290 0
237 273 0
238 291 0
240 276 0
241 292 0
242 380 0
244 279 0
245 293 0
246 381 0
248 282 0
249 294 0
250 386 0
252 285 0
253 295 0
254 393 0
255 399 0
256 404 0
257 407 0
258 411 0
259 414 0
263 300 0
288 301 0
289 302 0
290 303 0
291 304 0
292 305 0
293 306 0
294 307 0
295 308 0
297 309 0
298 319 0
299 329 0
300 348 0
301 349 0
302 350 0
303 351 0
304 352 0
305 353 0
306 354 0
307 355 0
308 356 0
320 334 0
321 336 0
322 338 0
323 340 0
324 342 0
325 344 0
326 345 0
327 346 0
328 347 0
330 348 0
331 349 0
332 350 0
333 351 0
334 380 0
335 352 0
336 381 0
337 353 0
338 386 0
339 354 0
340 393 0
341 355 0
342 399 0
343 356 0
344 404 0
345 407 0
346 411 0
347 414 0
358 360 0
359 370 0
361 371 0
362 372 0
363 373 0
364 374 0
365 375 0
366 376 0
367 377 0
368 378 0
369 379 0
371 380 0
372 381 0
373 386 0
374 393 0
375 399 0
376 404 0
377 407 0
378 411 0
379 414 0
380 415 0
383 430 0
384 431 0
385 432 0
388 422 0
389 425 0
390 430 0
391 429 0
392 431 0
395 417 0
396 425 0
397 428 0
398 429 0
401 425 0
402 428 0
403 430 0
406 418 0
409 419 0
410 429 0
413 420 0
415 416 421 0
417 422 0
418 425 0
419 428 0
420 429 0
423 430 0
424 432 0
426 431 0
427 432 0
428 431 0
429 432 0
